/* Objective function */
min: +x1 +x2 +x3 +x4 +x5;

/* Constraints */
0 x1 <= 0;
0 x1 <= 0;
0 x1 <= 0;
0 x1 <= 0;
0 x1 <= 0;
+4 x1 +5 x2 +17 x3 +14 x4 +6 x5 >= 1;
+10 x1 +4 x2 +3 x3 +16 x4 +3 x5 >= 1;
+16 x1 +2 x2 +6 x3 +18 x4 +10 x5 >= 1;
+14 x1 +16 x2 +10 x3 +4 x4 +18 x5 >= 1;
+17 x1 +14 x2 +15 x3 +7 x4 +15 x5 >= 1;
